num_offers = 30;
num_halls = 10;
start=[28,24,14,38,58,16,93,79,28,25,28,26,24,28,55,9,59,20,52,1,16,16,67,10,71,54,7,17,33,4];
end=[84,94,64,40,85,66,97,89,71,75,37,54,75,34,90,40,67,64,60,89,59,55,71,64,73,69,47,60,78,13];
price=[3443,5858,923,194,1845,3147,84,520,1975,3722,437,1607,1954,216,528,2156,580,1988,299,2932,1237,3849,385,2489,187,304,3993,3674,3580,726];
requirement=[419,628,478,229,296,812,831,942,678,303,757,605,636,330,575,236,795,998,824,929,830,440,757,339,659,608,867,532,586,543];
capacity=[824,906,985,515,629,510,316,640,397,784];
